
Gurobi 10.0.1 (linux64) logging started Sun Nov 26 15:55:17 2023

Set parameter LogFile to value "ArtificialInstance/ExperimentV2/S2T3K3/AdRo/gurobi91.txt"
Gurobi Optimizer version 10.0.1 build v10.0.1rc0 (linux64)

CPU model: AMD EPYC 7H12 64-Core Processor, instruction set [SSE2|AVX|AVX2]
Thread count: 128 physical cores, 128 logical processors, using up to 32 threads

Academic license 656792 - for non-commercial use only - registered to b.___@student.vu.nl
Optimize a model with 9612 rows, 9379 columns and 36108 nonzeros
Model fingerprint: 0x58193274
Variable types: 1 continuous, 9378 integer (9378 binary)
Coefficient statistics:
  Matrix range     [1e+00, 4e+01]
  Objective range  [1e+00, 2e+01]
  Bounds range     [1e+00, 1e+00]
  RHS range        [1e+00, 1e+00]
Presolve removed 2149 rows and 2225 columns
Presolve time: 0.16s
Presolved: 7463 rows, 7154 columns, 28051 nonzeros
Variable types: 1 continuous, 7153 integer (7153 binary)

Root relaxation: objective 5.932594e+01, 4203 iterations, 0.28 seconds (0.21 work units)

    Nodes    |    Current Node    |     Objective Bounds      |     Work
 Expl Unexpl |  Obj  Depth IntInf | Incumbent    BestBd   Gap | It/Node Time

     0     0   59.32594    0  254          -   59.32594      -     -    0s
H    0     0                      89.9256371   59.32594  34.0%     -    0s
H    0     0                      62.6626327   59.32594  5.32%     -    0s
     0     0   61.77283    0  209   62.66263   61.77283  1.42%     -    0s
*    0     0               0      62.0832275   62.08323  0.00%     -    1s

Explored 1 nodes (7273 simplex iterations) in 1.03 seconds (0.62 work units)
Thread count was 32 (of 128 available processors)

Solution count 3: 62.0832 62.6626 89.9256 

Optimal solution found (tolerance 1.00e-04)
Best objective 6.208322751840e+01, best bound 6.208322751840e+01, gap 0.0000%
